107
34
33 189
39 179
28 160
8 48
11 46
19 80
2 10
22 112
18 85
21 113
15 64
24 132
20 115
6 26
27 158
2 11
11 56
19 112
20 111
25 139
6 33
18 101
24 132
20 115
6 26
27 158
6 26
27 158
6 26
27 158
6 26
27 158
6 26
27 158